Set parameter Username
Set parameter LogFile to value "gurobi.log"
Academic license - for non-commercial use only - expires 2024-05-02
Using license file /Users/sissi/gurobi.lic

Gurobi Optimizer version 10.0.1 build v10.0.1rc0 (mac64[arm])
Copyright (c) 2023, Gurobi Optimization, LLC

Read OPB format model from file pbo/p_pbo_0_1634.opb
Reading time = 0.01 seconds
(null): 2005 rows, 1057 columns, 5973 nonzeros

CPU model: Apple M2
Thread count: 8 physical cores, 8 logical processors, using up to 8 threads

Optimize a model with 2005 rows, 1057 columns and 5973 nonzeros
Model fingerprint: 0xe45d6cb3
Variable types: 0 continuous, 1057 integer (1057 binary)
Coefficient statistics:
  Matrix range     [1e+00, 1e+00]
  Objective range  [1e+00, 4e+00]
  Bounds range     [1e+00, 1e+00]
  RHS range        [1e+00, 1e+00]
Found heuristic solution: objective -360.0000000
Presolve removed 1001 rows and 511 columns
Presolve time: 0.01s
Presolved: 1004 rows, 546 columns, 3012 nonzeros
Variable types: 0 continuous, 546 integer (546 binary)

Root relaxation: objective -6.150000e+02, 123 iterations, 0.00 seconds (0.00 work units)

    Nodes    |    Current Node    |     Objective Bounds      |     Work
 Expl Unexpl |  Obj  Depth IntInf | Incumbent    BestBd   Gap | It/Node Time

     0     0 -615.00000    0   44 -360.00000 -615.00000  70.8%     -    0s
     0     0 -431.20012    0  534 -360.00000 -431.20012  19.8%     -    0s
     0     0 -405.57754    0  540 -360.00000 -405.57754  12.7%     -    1s
H    0     0                    -383.0000000 -405.57754  5.89%     -    1s
     0     0 -404.27264    0  540 -383.00000 -404.27264  5.55%     -    1s
     0     0 -403.89642    0  540 -383.00000 -403.89642  5.46%     -    1s
     0     0 -403.69396    0  541 -383.00000 -403.69396  5.40%     -    1s
     0     0 -403.54373    0  540 -383.00000 -403.54373  5.36%     -    1s
     0     0 -397.82317    0  545 -383.00000 -397.82317  3.87%     -    2s
     0     0 -397.01135    0  545 -383.00000 -397.01135  3.66%     -    2s
     0     0 -396.67079    0  544 -383.00000 -396.67079  3.57%     -    2s
     0     0 -396.46566    0  544 -383.00000 -396.46566  3.52%     -    2s
     0     0 -396.35176    0  544 -383.00000 -396.35176  3.49%     -    2s
H    0     0                    -395.0000000 -396.35176  0.34%     -    2s
     0     0     cutoff    0      -395.00000 -395.00000  0.00%     -    2s

Cutting planes:
  MIR: 122
  RLT: 204

Explored 1 nodes (6965 simplex iterations) in 2.84 seconds (1.21 work units)
Thread count was 8 (of 8 available processors)

Solution count 3: -395 -383 -360 
No other solutions better than -395

Optimal solution found (tolerance 1.00e-04)
Best objective -3.950000000000e+02, best bound -3.950000000000e+02, gap 0.0000%

Wrote result file 'solution/p_0_1634.sol'

